%%MatrixMarket matrix coordinate pattern symmetric
% Converted from soc-firm-hi-tech.txt
36 36 91
1 6
2 4
2 10
2 13
2 14
2 15
2 28
2 29
3 6
3 8
3 12
3 35
4 7
4 13
4 20
4 24
4 27
4 29
4 35
5 19
5 24
6 8
6 19
6 21
7 14
7 24
7 29
9 14
9 20
9 21
9 29
11 14
11 18
11 20
11 22
11 24
11 29
11 30
11 33
11 34
12 26
12 33
12 35
13 16
13 18
13 20
13 29
13 30
14 15
14 29
14 33
14 34
15 29
15 34
16 19
16 31
16 35
16 36
18 27
18 29
19 21
19 24
19 30
19 31
19 33
19 35
20 21
20 22
20 24
20 26
20 29
20 33
20 34
21 24
21 26
21 29
22 34
23 24
23 29
24 27
24 29
24 30
24 33
24 34
26 35
27 29
29 33
29 34
30 35
33 34
33 35
